(set-info :source |printed by MathSAT|)
(declare-fun call__DRAGON_.dirty () Int)
(declare-fun shared () Int)
(declare-fun call__DRAGON_.ite11 () Int)
(declare-fun call__DRAGON_.ite36 () Int)
(declare-fun call__DRAGON_.ite45 () Int)
(declare-fun call__DRAGON_.ite37 () Int)
(declare-fun call__DRAGON_.ite5 () Int)
(declare-fun call__DRAGON_.ite30 () Int)
(declare-fun call__DRAGON_.ite24 () Int)
(declare-fun call__DRAGON_.ite18 () Int)
(declare-fun call__DRAGON_.ite46 () Int)
(declare-fun call__DRAGON_.flby () Int)
(declare-fun call__DRAGON_.g08 () Bool)
(declare-fun erreur () Bool)
(declare-fun call__DRAGON_.ite61 () Int)
(declare-fun flby () Bool)
(declare-fun call__DRAGON_.ite55 () Int)
(declare-fun call__DRAGON_.ite () Bool)
(declare-fun call__DRAGON_.ite53 () Int)
(declare-fun call__DRAGON_.ite57 () Int)
(declare-fun call__DRAGON_.ite17 () Int)
(declare-fun call__DRAGON_.ite39 () Int)
(declare-fun call__DRAGON_.ite33 () Int)
(declare-fun call__DRAGON_.invalid () Int)
(declare-fun call__DRAGON_.ite21 () Int)
(declare-fun call_excludes12.excludes () Bool)
(declare-fun param_e06 () Bool)
(declare-fun param_e05 () Bool)
(declare-fun call__DRAGON_.ite16 () Int)
(declare-fun call__DRAGON_.ite12 () Int)
(declare-fun call__DRAGON_.ite44 () Int)
(declare-fun param_e11 () Bool)
(declare-fun call__DRAGON_.ite31 () Int)
(declare-fun call__DRAGON_.flby4 () Int)
(declare-fun call__DRAGON_.ite41 () Int)
(declare-fun call__DRAGON_.ite27 () Int)
(declare-fun call__DRAGON_.ite40 () Int)
(declare-fun call__DRAGON_.ite15 () Int)
(declare-fun call__DRAGON_.mem_init () Int)
(declare-fun param_e08 () Bool)
(declare-fun invalid () Int)
(declare-fun param_e09 () Bool)
(declare-fun call__DRAGON_.ite20 () Int)
(declare-fun call__DRAGON_.ite47 () Int)
(declare-fun call__DRAGON_.g05 () Bool)
(declare-fun call__DRAGON_.g02 () Bool)
(declare-fun shared_dirty () Int)
(declare-fun call__DRAGON_.ite60 () Int)
(declare-fun param_init_invalid () Int)
(declare-fun call__DRAGON_.g06 () Bool)
(declare-fun call_Sofar.Sofar () Bool)
(declare-fun param_e02 () Bool)
(declare-fun param_e12 () Bool)
(declare-fun call__DRAGON_.flby2 () Int)
(declare-fun call__DRAGON_.ite52 () Int)
(declare-fun call__DRAGON_.ite43 () Int)
(declare-fun call__DRAGON_.ite50 () Int)
(declare-fun call__DRAGON_.ite58 () Int)
(declare-fun call_Sofar.flby () Bool)
(declare-fun param_e07 () Bool)
(declare-fun exclusive () Int)
(declare-fun call__DRAGON_.ite8 () Int)
(declare-fun call__DRAGON_.ite9 () Int)
(declare-fun param_e04 () Bool)
(declare-fun call__DRAGON_.ite42 () Int)
(declare-fun param_e10 () Bool)
(declare-fun call__DRAGON_.erreur () Bool)
(declare-fun call__DRAGON_.ite10 () Int)
(declare-fun call__DRAGON_.ite26 () Int)
(declare-fun _OK_ () Bool)
(declare-fun param_e01 () Bool)
(declare-fun call__DRAGON_.ite32 () Int)
(declare-fun call__DRAGON_.ite19 () Int)
(declare-fun call__DRAGON_.ite13 () Int)
(declare-fun call__DRAGON_.ite51 () Int)
(declare-fun call__DRAGON_.flby3 () Int)
(declare-fun param_e03 () Bool)
(declare-fun call__DRAGON_.ite48 () Int)
(declare-fun call__DRAGON_.ite23 () Int)
(declare-fun call__DRAGON_.ite25 () Int)
(declare-fun call__DRAGON_.ite35 () Int)
(declare-fun call__DRAGON_.ite14 () Int)
(declare-fun call__DRAGON_.ite38 () Int)
(declare-fun call__DRAGON_.ite22 () Int)
(declare-fun call_First.First () Int)
(declare-fun call_First.flby () Int)
(declare-fun call__DRAGON_.ite28 () Int)
(declare-fun call__DRAGON_.ite6 () Int)
(declare-fun call__DRAGON_.ite7 () Int)
(declare-fun call__DRAGON_.ite2 () Int)
(declare-fun call__DRAGON_.ite54 () Int)
(declare-fun call__DRAGON_.ite34 () Int)
(declare-fun env () Bool)
(declare-fun call__DRAGON_.ite4 () Int)
(declare-fun call__DRAGON_.ite3 () Int)
(declare-fun call__DRAGON_.ite49 () Int)
(declare-fun call__DRAGON_.ite56 () Int)
(declare-fun call__DRAGON_.shared () Int)
(declare-fun call__DRAGON_.ite29 () Int)
(declare-fun call__DRAGON_.exclusive () Int)
(declare-fun call__DRAGON_.g04 () Bool)
(declare-fun dirty () Int)
(declare-fun call__DRAGON_.flby5 () Int)
(declare-fun call__DRAGON_.ite59 () Int)
(declare-fun call__DRAGON_.shared_dirty () Int)
(declare-fun call__DRAGON_.flby6 () Int)
(define-fun .def_1820 () Bool (= call_First.flby call_First.First))
(define-fun .def_1818 () Bool (= call_Sofar.flby call_Sofar.Sofar))
(define-fun .def_1627 () Bool (not param_e02))
(define-fun .def_1608 () Bool (not param_e01))
(define-fun .def_1716 () Bool (and .def_1608 .def_1627))
(define-fun .def_1668 () Bool (not param_e03))
(define-fun .def_1717 () Bool (and .def_1668 .def_1716))
(define-fun .def_1684 () Bool (not param_e04))
(define-fun .def_1718 () Bool (and .def_1684 .def_1717))
(define-fun .def_1456 () Bool (not param_e05))
(define-fun .def_1719 () Bool (and .def_1456 .def_1718))
(define-fun .def_1438 () Bool (not param_e06))
(define-fun .def_1720 () Bool (and .def_1438 .def_1719))
(define-fun .def_1473 () Bool (not param_e07))
(define-fun .def_1721 () Bool (and .def_1473 .def_1720))
(define-fun .def_1492 () Bool (not param_e08))
(define-fun .def_1722 () Bool (and .def_1492 .def_1721))
(define-fun .def_1329 () Bool (not param_e09))
(define-fun .def_1723 () Bool (and .def_1329 .def_1722))
(define-fun .def_1337 () Bool (not param_e10))
(define-fun .def_1724 () Bool (and .def_1337 .def_1723))
(define-fun .def_1344 () Bool (not param_e11))
(define-fun .def_1725 () Bool (and .def_1344 .def_1724))
(define-fun .def_1351 () Bool (not param_e12))
(define-fun .def_1803 () Bool (and .def_1351 .def_1725))
(define-fun .def_1792 () Bool (and param_e01 .def_1627))
(define-fun .def_1793 () Bool (and .def_1668 .def_1792))
(define-fun .def_1794 () Bool (and .def_1684 .def_1793))
(define-fun .def_1795 () Bool (and .def_1456 .def_1794))
(define-fun .def_1796 () Bool (and .def_1438 .def_1795))
(define-fun .def_1797 () Bool (and .def_1473 .def_1796))
(define-fun .def_1798 () Bool (and .def_1492 .def_1797))
(define-fun .def_1799 () Bool (and .def_1329 .def_1798))
(define-fun .def_1800 () Bool (and .def_1337 .def_1799))
(define-fun .def_1801 () Bool (and .def_1344 .def_1800))
(define-fun .def_1802 () Bool (and .def_1351 .def_1801))
(define-fun .def_1804 () Bool (or .def_1802 .def_1803))
(define-fun .def_1781 () Bool (and .def_1608 param_e02))
(define-fun .def_1782 () Bool (and .def_1668 .def_1781))
(define-fun .def_1783 () Bool (and .def_1684 .def_1782))
(define-fun .def_1784 () Bool (and .def_1456 .def_1783))
(define-fun .def_1785 () Bool (and .def_1438 .def_1784))
(define-fun .def_1786 () Bool (and .def_1473 .def_1785))
(define-fun .def_1787 () Bool (and .def_1492 .def_1786))
(define-fun .def_1788 () Bool (and .def_1329 .def_1787))
(define-fun .def_1789 () Bool (and .def_1337 .def_1788))
(define-fun .def_1790 () Bool (and .def_1344 .def_1789))
(define-fun .def_1791 () Bool (and .def_1351 .def_1790))
(define-fun .def_1805 () Bool (or .def_1791 .def_1804))
(define-fun .def_1771 () Bool (and param_e03 .def_1716))
(define-fun .def_1772 () Bool (and .def_1684 .def_1771))
(define-fun .def_1773 () Bool (and .def_1456 .def_1772))
(define-fun .def_1774 () Bool (and .def_1438 .def_1773))
(define-fun .def_1775 () Bool (and .def_1473 .def_1774))
(define-fun .def_1776 () Bool (and .def_1492 .def_1775))
(define-fun .def_1777 () Bool (and .def_1329 .def_1776))
(define-fun .def_1778 () Bool (and .def_1337 .def_1777))
(define-fun .def_1779 () Bool (and .def_1344 .def_1778))
(define-fun .def_1780 () Bool (and .def_1351 .def_1779))
(define-fun .def_1806 () Bool (or .def_1780 .def_1805))
(define-fun .def_1762 () Bool (and param_e04 .def_1717))
(define-fun .def_1763 () Bool (and .def_1456 .def_1762))
(define-fun .def_1764 () Bool (and .def_1438 .def_1763))
(define-fun .def_1765 () Bool (and .def_1473 .def_1764))
(define-fun .def_1766 () Bool (and .def_1492 .def_1765))
(define-fun .def_1767 () Bool (and .def_1329 .def_1766))
(define-fun .def_1768 () Bool (and .def_1337 .def_1767))
(define-fun .def_1769 () Bool (and .def_1344 .def_1768))
(define-fun .def_1770 () Bool (and .def_1351 .def_1769))
(define-fun .def_1807 () Bool (or .def_1770 .def_1806))
(define-fun .def_1754 () Bool (and param_e05 .def_1718))
(define-fun .def_1755 () Bool (and .def_1438 .def_1754))
(define-fun .def_1756 () Bool (and .def_1473 .def_1755))
(define-fun .def_1757 () Bool (and .def_1492 .def_1756))
(define-fun .def_1758 () Bool (and .def_1329 .def_1757))
(define-fun .def_1759 () Bool (and .def_1337 .def_1758))
(define-fun .def_1760 () Bool (and .def_1344 .def_1759))
(define-fun .def_1761 () Bool (and .def_1351 .def_1760))
(define-fun .def_1808 () Bool (or .def_1761 .def_1807))
(define-fun .def_1747 () Bool (and param_e06 .def_1719))
(define-fun .def_1748 () Bool (and .def_1473 .def_1747))
(define-fun .def_1749 () Bool (and .def_1492 .def_1748))
(define-fun .def_1750 () Bool (and .def_1329 .def_1749))
(define-fun .def_1751 () Bool (and .def_1337 .def_1750))
(define-fun .def_1752 () Bool (and .def_1344 .def_1751))
(define-fun .def_1753 () Bool (and .def_1351 .def_1752))
(define-fun .def_1809 () Bool (or .def_1753 .def_1808))
(define-fun .def_1741 () Bool (and param_e07 .def_1720))
(define-fun .def_1742 () Bool (and .def_1492 .def_1741))
(define-fun .def_1743 () Bool (and .def_1329 .def_1742))
(define-fun .def_1744 () Bool (and .def_1337 .def_1743))
(define-fun .def_1745 () Bool (and .def_1344 .def_1744))
(define-fun .def_1746 () Bool (and .def_1351 .def_1745))
(define-fun .def_1810 () Bool (or .def_1746 .def_1809))
(define-fun .def_1736 () Bool (and param_e08 .def_1721))
(define-fun .def_1737 () Bool (and .def_1329 .def_1736))
(define-fun .def_1738 () Bool (and .def_1337 .def_1737))
(define-fun .def_1739 () Bool (and .def_1344 .def_1738))
(define-fun .def_1740 () Bool (and .def_1351 .def_1739))
(define-fun .def_1811 () Bool (or .def_1740 .def_1810))
(define-fun .def_1732 () Bool (and param_e09 .def_1722))
(define-fun .def_1733 () Bool (and .def_1337 .def_1732))
(define-fun .def_1734 () Bool (and .def_1344 .def_1733))
(define-fun .def_1735 () Bool (and .def_1351 .def_1734))
(define-fun .def_1812 () Bool (or .def_1735 .def_1811))
(define-fun .def_1729 () Bool (and param_e10 .def_1723))
(define-fun .def_1730 () Bool (and .def_1344 .def_1729))
(define-fun .def_1731 () Bool (and .def_1351 .def_1730))
(define-fun .def_1813 () Bool (or .def_1731 .def_1812))
(define-fun .def_1727 () Bool (and param_e11 .def_1724))
(define-fun .def_1728 () Bool (and .def_1351 .def_1727))
(define-fun .def_1814 () Bool (or .def_1728 .def_1813))
(define-fun .def_1726 () Bool (and param_e12 .def_1725))
(define-fun .def_1815 () Bool (or .def_1726 .def_1814))
(define-fun .def_1816 () Bool (= call_excludes12.excludes .def_1815))
(define-fun .def_1714 () Bool (= call__DRAGON_.mem_init call__DRAGON_.flby))
(define-fun .def_1712 () Bool (= call__DRAGON_.erreur call__DRAGON_.ite))
(define-fun .def_1710 () Bool (= call__DRAGON_.flby6 call__DRAGON_.invalid))
(define-fun .def_1708 () Bool (= call__DRAGON_.flby5 call__DRAGON_.dirty))
(define-fun .def_1706 () Bool (= call__DRAGON_.flby4 call__DRAGON_.shared_dirty))
(define-fun .def_1704 () Bool (= call__DRAGON_.flby3 call__DRAGON_.shared))
(define-fun .def_1701 () Bool (= call__DRAGON_.flby2 call__DRAGON_.exclusive))
(define-fun .def_1696 () Bool (<= 2 call__DRAGON_.exclusive))
(define-fun .def_1698 () Bool (not .def_1696))
(define-fun .def_1699 () Bool (or call__DRAGON_.ite .def_1698))
(define-fun .def_1695 () Bool (not call__DRAGON_.ite))
(define-fun .def_1697 () Bool (or .def_1695 .def_1696))
(define-fun .def_1700 () Bool (and .def_1697 .def_1699))
(define-fun .def_1702 () Bool (and .def_1700 .def_1701))
(define-fun .def_1690 () Bool (= call__DRAGON_.ite29 call__DRAGON_.ite30))
(define-fun .def_1691 () Bool (or param_e04 .def_1690))
(define-fun .def_1687 () Bool (= call__DRAGON_.ite23 call__DRAGON_.ite30))
(define-fun .def_1688 () Bool (or .def_1684 .def_1687))
(define-fun .def_1683 () Bool (= call__DRAGON_.ite43 call__DRAGON_.ite34))
(define-fun .def_1685 () Bool (or .def_1683 .def_1684))
(define-fun .def_1679 () Bool (= call__DRAGON_.ite42 call__DRAGON_.ite43))
(define-fun .def_1681 () Bool (or .def_1679 param_e04))
(define-fun .def_1686 () Bool (and .def_1681 .def_1685))
(define-fun .def_1689 () Bool (and .def_1686 .def_1688))
(define-fun .def_1692 () Bool (and .def_1689 .def_1691))
(define-fun .def_1675 () Bool (= call__DRAGON_.ite8 call__DRAGON_.ite9))
(define-fun .def_1676 () Bool (or param_e03 .def_1675))
(define-fun .def_1672 () Bool (= call__DRAGON_.ite9 call__DRAGON_.ite4))
(define-fun .def_1673 () Bool (or .def_1668 .def_1672))
(define-fun .def_1667 () Bool (= call__DRAGON_.ite44 call__DRAGON_.ite33))
(define-fun .def_1669 () Bool (or .def_1667 .def_1668))
(define-fun .def_1663 () Bool (= call__DRAGON_.ite44 call__DRAGON_.ite43))
(define-fun .def_1665 () Bool (or .def_1663 param_e03))
(define-fun .def_1670 () Bool (and .def_1665 .def_1669))
(define-fun .def_1674 () Bool (and .def_1670 .def_1673))
(define-fun .def_1677 () Bool (and .def_1674 .def_1676))
(define-fun .def_1658 () Bool (= call__DRAGON_.ite31 call__DRAGON_.ite30))
(define-fun .def_1659 () Bool (or param_e02 .def_1658))
(define-fun .def_1654 () Bool (= call__DRAGON_.ite22 call__DRAGON_.ite31))
(define-fun .def_1655 () Bool (or .def_1627 .def_1654))
(define-fun .def_1649 () Bool (= call__DRAGON_.ite20 call__DRAGON_.ite21))
(define-fun .def_1650 () Bool (or param_e02 .def_1649))
(define-fun .def_1646 () Bool (= call__DRAGON_.ite12 call__DRAGON_.ite21))
(define-fun .def_1647 () Bool (or .def_1627 .def_1646))
(define-fun .def_1641 () Bool (= call__DRAGON_.ite10 call__DRAGON_.ite9))
(define-fun .def_1642 () Bool (or param_e02 .def_1641))
(define-fun .def_1637 () Bool (= call__DRAGON_.ite3 call__DRAGON_.ite10))
(define-fun .def_1638 () Bool (or .def_1627 .def_1637))
(define-fun .def_1634 () Bool (= call__DRAGON_.ite59 call__DRAGON_.ite60))
(define-fun .def_1635 () Bool (or param_e02 .def_1634))
(define-fun .def_1631 () Bool (= call__DRAGON_.ite60 call__DRAGON_.ite47))
(define-fun .def_1632 () Bool (or .def_1627 .def_1631))
(define-fun .def_1626 () Bool (= call__DRAGON_.ite32 call__DRAGON_.ite45))
(define-fun .def_1628 () Bool (or .def_1626 .def_1627))
(define-fun .def_1623 () Bool (= call__DRAGON_.ite45 call__DRAGON_.ite44))
(define-fun .def_1625 () Bool (or .def_1623 param_e02))
(define-fun .def_1629 () Bool (and .def_1625 .def_1628))
(define-fun .def_1633 () Bool (and .def_1629 .def_1632))
(define-fun .def_1636 () Bool (and .def_1633 .def_1635))
(define-fun .def_1639 () Bool (and .def_1636 .def_1638))
(define-fun .def_1643 () Bool (and .def_1639 .def_1642))
(define-fun .def_1648 () Bool (and .def_1643 .def_1647))
(define-fun .def_1651 () Bool (and .def_1648 .def_1650))
(define-fun .def_1656 () Bool (and .def_1651 .def_1655))
(define-fun .def_1660 () Bool (and .def_1656 .def_1659))
(define-fun .def_1617 () Bool (= call__DRAGON_.ite11 call__DRAGON_.ite10))
(define-fun .def_1618 () Bool (or param_e01 .def_1617))
(define-fun .def_1613 () Bool (= call__DRAGON_.ite2 call__DRAGON_.ite11))
(define-fun .def_1614 () Bool (or .def_1608 .def_1613))
(define-fun .def_1607 () Bool (= call__DRAGON_.ite61 call__DRAGON_.ite46))
(define-fun .def_1609 () Bool (or .def_1607 .def_1608))
(define-fun .def_1603 () Bool (= call__DRAGON_.ite61 call__DRAGON_.ite60))
(define-fun .def_1605 () Bool (or .def_1603 param_e01))
(define-fun .def_1610 () Bool (and .def_1605 .def_1609))
(define-fun .def_1615 () Bool (and .def_1610 .def_1614))
(define-fun .def_1619 () Bool (and .def_1615 .def_1618))
(define-fun .def_1597 () Bool (= call__DRAGON_.ite55 call__DRAGON_.ite52))
(define-fun .def_1598 () Bool (or .def_1344 .def_1597))
(define-fun .def_1594 () Bool (= call__DRAGON_.ite54 call__DRAGON_.ite55))
(define-fun .def_1595 () Bool (or param_e11 .def_1594))
(define-fun .def_1599 () Bool (and .def_1595 .def_1598))
(define-fun .def_1590 () Bool (= call__DRAGON_.ite56 call__DRAGON_.ite51))
(define-fun .def_1591 () Bool (or .def_1337 .def_1590))
(define-fun .def_1587 () Bool (= call__DRAGON_.ite56 call__DRAGON_.ite55))
(define-fun .def_1588 () Bool (or param_e10 .def_1587))
(define-fun .def_1592 () Bool (and .def_1588 .def_1591))
(define-fun .def_1582 () Bool (= call__DRAGON_.ite57 call__DRAGON_.ite50))
(define-fun .def_1583 () Bool (or .def_1329 .def_1582))
(define-fun .def_1579 () Bool (= call__DRAGON_.ite57 call__DRAGON_.ite56))
(define-fun .def_1580 () Bool (or param_e09 .def_1579))
(define-fun .def_1584 () Bool (and .def_1580 .def_1583))
(define-fun .def_1576 () Bool (= env call_Sofar.Sofar))
(define-fun .def_1573 () Bool (= erreur call__DRAGON_.erreur))
(define-fun .def_1570 () Bool (= invalid call__DRAGON_.invalid))
(define-fun .def_1567 () Bool (= dirty call__DRAGON_.dirty))
(define-fun .def_1564 () Bool (= shared_dirty call__DRAGON_.shared_dirty))
(define-fun .def_1561 () Bool (= shared call__DRAGON_.shared))
(define-fun .def_1558 () Bool (= exclusive call__DRAGON_.exclusive))
(define-fun .def_1552 () Bool (<= 0 exclusive))
(define-fun .def_1544 () Int (* (- 1) call_First.First))
(define-fun .def_1545 () Int (+ invalid .def_1544))
(define-fun .def_1546 () Int (+ dirty .def_1545))
(define-fun .def_1547 () Int (+ shared_dirty .def_1546))
(define-fun .def_1548 () Int (+ shared .def_1547))
(define-fun .def_1549 () Int (+ exclusive .def_1548))
(define-fun .def_1550 () Bool (= .def_1549 0))
(define-fun .def_1526 () Bool (not erreur))
(define-fun .def_1527 () Bool (and flby .def_1526))
(define-fun .def_1551 () Bool (and .def_1527 .def_1550))
(define-fun .def_1553 () Bool (and .def_1551 .def_1552))
(define-fun .def_1524 () Bool (not env))
(define-fun .def_1554 () Bool (or .def_1524 .def_1553))
(define-fun .def_1555 () Bool (= _OK_ .def_1554))
(define-fun .def_1518 () Bool (= call__DRAGON_.ite39 call__DRAGON_.ite40))
(define-fun .def_1519 () Bool (or param_e08 .def_1518))
(define-fun .def_1515 () Bool (= call__DRAGON_.ite37 call__DRAGON_.ite40))
(define-fun .def_1516 () Bool (or .def_1492 .def_1515))
(define-fun .def_1512 () Bool (= call__DRAGON_.ite27 call__DRAGON_.ite28))
(define-fun .def_1513 () Bool (or param_e08 .def_1512))
(define-fun .def_1509 () Bool (= call__DRAGON_.ite25 call__DRAGON_.ite28))
(define-fun .def_1510 () Bool (or .def_1492 .def_1509))
(define-fun .def_1506 () Bool (= call__DRAGON_.ite17 call__DRAGON_.ite18))
(define-fun .def_1507 () Bool (or param_e08 .def_1506))
(define-fun .def_1503 () Bool (= call__DRAGON_.ite18 call__DRAGON_.ite15))
(define-fun .def_1504 () Bool (or .def_1492 .def_1503))
(define-fun .def_1499 () Bool (= call__DRAGON_.ite7 call__DRAGON_.ite8))
(define-fun .def_1500 () Bool (or param_e08 .def_1499))
(define-fun .def_1496 () Bool (= call__DRAGON_.ite5 call__DRAGON_.ite8))
(define-fun .def_1497 () Bool (or .def_1492 .def_1496))
(define-fun .def_1491 () Bool (= call__DRAGON_.ite58 call__DRAGON_.ite49))
(define-fun .def_1493 () Bool (or .def_1491 .def_1492))
(define-fun .def_1487 () Bool (= call__DRAGON_.ite58 call__DRAGON_.ite57))
(define-fun .def_1489 () Bool (or .def_1487 param_e08))
(define-fun .def_1494 () Bool (and .def_1489 .def_1493))
(define-fun .def_1498 () Bool (and .def_1494 .def_1497))
(define-fun .def_1501 () Bool (and .def_1498 .def_1500))
(define-fun .def_1505 () Bool (and .def_1501 .def_1504))
(define-fun .def_1508 () Bool (and .def_1505 .def_1507))
(define-fun .def_1511 () Bool (and .def_1508 .def_1510))
(define-fun .def_1514 () Bool (and .def_1511 .def_1513))
(define-fun .def_1517 () Bool (and .def_1514 .def_1516))
(define-fun .def_1520 () Bool (and .def_1517 .def_1519))
(define-fun .def_1482 () Bool (= call__DRAGON_.ite59 call__DRAGON_.ite58))
(define-fun .def_1483 () Bool (or param_e07 .def_1482))
(define-fun .def_1478 () Bool (= call__DRAGON_.ite48 call__DRAGON_.ite59))
(define-fun .def_1479 () Bool (or .def_1473 .def_1478))
(define-fun .def_1472 () Bool (= call__DRAGON_.ite41 call__DRAGON_.ite36))
(define-fun .def_1474 () Bool (or .def_1472 .def_1473))
(define-fun .def_1468 () Bool (= call__DRAGON_.ite41 call__DRAGON_.ite40))
(define-fun .def_1470 () Bool (or .def_1468 param_e07))
(define-fun .def_1475 () Bool (and .def_1470 .def_1474))
(define-fun .def_1480 () Bool (and .def_1475 .def_1479))
(define-fun .def_1484 () Bool (and .def_1480 .def_1483))
(define-fun .def_1463 () Bool (= call__DRAGON_.ite19 call__DRAGON_.ite20))
(define-fun .def_1464 () Bool (or param_e05 .def_1463))
(define-fun .def_1460 () Bool (= call__DRAGON_.ite13 call__DRAGON_.ite20))
(define-fun .def_1461 () Bool (or .def_1456 .def_1460))
(define-fun .def_1455 () Bool (= call__DRAGON_.ite42 call__DRAGON_.ite35))
(define-fun .def_1457 () Bool (or .def_1455 .def_1456))
(define-fun .def_1451 () Bool (= call__DRAGON_.ite41 call__DRAGON_.ite42))
(define-fun .def_1453 () Bool (or .def_1451 param_e05))
(define-fun .def_1458 () Bool (and .def_1453 .def_1457))
(define-fun .def_1462 () Bool (and .def_1458 .def_1461))
(define-fun .def_1465 () Bool (and .def_1462 .def_1464))
(define-fun .def_1446 () Bool (= call__DRAGON_.ite29 call__DRAGON_.ite28))
(define-fun .def_1447 () Bool (or param_e06 .def_1446))
(define-fun .def_1442 () Bool (= call__DRAGON_.ite24 call__DRAGON_.ite29))
(define-fun .def_1443 () Bool (or .def_1438 .def_1442))
(define-fun .def_1437 () Bool (= call__DRAGON_.ite19 call__DRAGON_.ite14))
(define-fun .def_1439 () Bool (or .def_1437 .def_1438))
(define-fun .def_1433 () Bool (= call__DRAGON_.ite19 call__DRAGON_.ite18))
(define-fun .def_1435 () Bool (or .def_1433 param_e06))
(define-fun .def_1440 () Bool (and .def_1435 .def_1439))
(define-fun .def_1444 () Bool (and .def_1440 .def_1443))
(define-fun .def_1448 () Bool (and .def_1444 .def_1447))
(define-fun .def_1466 () Bool (and .def_1448 .def_1465))
(define-fun .def_1485 () Bool (and .def_1466 .def_1484))
(define-fun .def_1521 () Bool (and .def_1485 .def_1520))
(define-fun .def_1556 () Bool (and .def_1521 .def_1555))
(define-fun .def_1559 () Bool (and .def_1556 .def_1558))
(define-fun .def_1562 () Bool (and .def_1559 .def_1561))
(define-fun .def_1565 () Bool (and .def_1562 .def_1564))
(define-fun .def_1568 () Bool (and .def_1565 .def_1567))
(define-fun .def_1571 () Bool (and .def_1568 .def_1570))
(define-fun .def_1574 () Bool (and .def_1571 .def_1573))
(define-fun .def_1577 () Bool (and .def_1574 .def_1576))
(define-fun .def_1585 () Bool (and .def_1577 .def_1584))
(define-fun .def_1593 () Bool (and .def_1585 .def_1592))
(define-fun .def_1600 () Bool (and .def_1593 .def_1599))
(define-fun .def_1620 () Bool (and .def_1600 .def_1619))
(define-fun .def_1661 () Bool (and .def_1620 .def_1660))
(define-fun .def_1678 () Bool (and .def_1661 .def_1677))
(define-fun .def_1693 () Bool (and .def_1678 .def_1692))
(define-fun .def_1703 () Bool (and .def_1693 .def_1702))
(define-fun .def_1705 () Bool (and .def_1703 .def_1704))
(define-fun .def_1707 () Bool (and .def_1705 .def_1706))
(define-fun .def_1709 () Bool (and .def_1707 .def_1708))
(define-fun .def_1711 () Bool (and .def_1709 .def_1710))
(define-fun .def_1713 () Bool (and .def_1711 .def_1712))
(define-fun .def_1715 () Bool (and .def_1713 .def_1714))
(define-fun .def_1817 () Bool (and .def_1715 .def_1816))
(define-fun .def_1819 () Bool (and .def_1817 .def_1818))
(define-fun .def_1821 () Bool (and .def_1819 .def_1820))
(define-fun .def_1429 () Bool (= param_init_invalid call_First.flby))
(define-fun .def_1421 () Bool (<= param_init_invalid 0))
(define-fun .def_1422 () Bool (not .def_1421))
(define-fun .def_1424 () Bool (and .def_1422 call_excludes12.excludes))
(define-fun .def_1426 () Bool (= .def_1424 call_Sofar.flby))
(define-fun .def_1419 () Bool (= call__DRAGON_.flby4 0))
(define-fun .def_1416 () Bool (= call__DRAGON_.flby3 0))
(define-fun .def_1413 () Bool (= call__DRAGON_.flby2 0))
(define-fun .def_1410 () Bool (= param_init_invalid call__DRAGON_.flby))
(define-fun .def_1404 () Bool (= call__DRAGON_.ite37 0))
(define-fun .def_1397 () Bool (not call__DRAGON_.g08))
(define-fun .def_1405 () Bool (or .def_1397 .def_1404))
(define-fun .def_1400 () Bool (= call__DRAGON_.ite5 0))
(define-fun .def_1401 () Bool (or .def_1397 .def_1400))
(define-fun .def_1395 () Bool (= call__DRAGON_.ite25 1))
(define-fun .def_1398 () Bool (or .def_1395 .def_1397))
(define-fun .def_1402 () Bool (and .def_1398 .def_1401))
(define-fun .def_1406 () Bool (and .def_1402 .def_1405))
(define-fun .def_1391 () Bool (= call__DRAGON_.ite24 1))
(define-fun .def_1389 () Bool (not call__DRAGON_.g06))
(define-fun .def_1392 () Bool (or .def_1389 .def_1391))
(define-fun .def_1385 () Bool (= call__DRAGON_.ite13 0))
(define-fun .def_1383 () Bool (not call__DRAGON_.g05))
(define-fun .def_1386 () Bool (or .def_1383 .def_1385))
(define-fun .def_1379 () Bool (= call__DRAGON_.ite23 0))
(define-fun .def_1377 () Bool (not call__DRAGON_.g04))
(define-fun .def_1380 () Bool (or .def_1377 .def_1379))
(define-fun .def_1372 () Bool (= call__DRAGON_.ite3 0))
(define-fun .def_1369 () Bool (not call__DRAGON_.g02))
(define-fun .def_1373 () Bool (or .def_1369 .def_1372))
(define-fun .def_1367 () Bool (= call__DRAGON_.ite32 0))
(define-fun .def_1370 () Bool (or .def_1367 .def_1369))
(define-fun .def_1374 () Bool (and .def_1370 .def_1373))
(define-fun .def_1364 () Bool (= call__DRAGON_.flby6 call__DRAGON_.mem_init))
(define-fun .def_1360 () Bool (= call__DRAGON_.flby5 0))
(define-fun .def_1355 () Bool (= call__DRAGON_.ite53 call__DRAGON_.ite54))
(define-fun .def_1356 () Bool (or .def_1351 .def_1355))
(define-fun .def_1349 () Bool (= call__DRAGON_.ite6 call__DRAGON_.ite7))
(define-fun .def_1352 () Bool (or .def_1349 .def_1351))
(define-fun .def_1357 () Bool (and .def_1352 .def_1356))
(define-fun .def_1342 () Bool (= call__DRAGON_.ite26 call__DRAGON_.ite27))
(define-fun .def_1345 () Bool (or .def_1342 .def_1344))
(define-fun .def_1335 () Bool (= call__DRAGON_.ite16 call__DRAGON_.ite17))
(define-fun .def_1338 () Bool (or .def_1335 .def_1337))
(define-fun .def_1327 () Bool (= call__DRAGON_.ite38 call__DRAGON_.ite39))
(define-fun .def_1330 () Bool (or .def_1327 .def_1329))
(define-fun .def_1332 () Bool (and .def_1330 flby))
(define-fun .def_1339 () Bool (and .def_1332 .def_1338))
(define-fun .def_1346 () Bool (and .def_1339 .def_1345))
(define-fun .def_1358 () Bool (and .def_1346 .def_1357))
(define-fun .def_1361 () Bool (and .def_1358 .def_1360))
(define-fun .def_1365 () Bool (and .def_1361 .def_1364))
(define-fun .def_1375 () Bool (and .def_1365 .def_1374))
(define-fun .def_1381 () Bool (and .def_1375 .def_1380))
(define-fun .def_1387 () Bool (and .def_1381 .def_1386))
(define-fun .def_1393 () Bool (and .def_1387 .def_1392))
(define-fun .def_1407 () Bool (and .def_1393 .def_1406))
(define-fun .def_1411 () Bool (and .def_1407 .def_1410))
(define-fun .def_1414 () Bool (and .def_1411 .def_1413))
(define-fun .def_1417 () Bool (and .def_1414 .def_1416))
(define-fun .def_1420 () Bool (and .def_1417 .def_1419))
(define-fun .def_1427 () Bool (and .def_1420 .def_1426))
(define-fun .def_1430 () Bool (and .def_1427 .def_1429))
(define-fun .def_1822 () Bool (and .def_1430 .def_1821))
(assert .def_1822)
